Gurobi Optimizer version 9.1.0 build v9.1.0rc0 (linux64)
Thread count: 8 physical cores, 16 logical processors, using up to 16 threads
Optimize a model with 104216 rows, 100800 columns and 576950 nonzeros
Model fingerprint: 0x8c748f4c
Variable types: 0 continuous, 100800 integer (100800 binary)
Coefficient statistics:
  Matrix range     [1e+00, 1e+00]
  Objective range  [1e+01, 3e+04]
  Bounds range     [1e+00, 1e+00]
  RHS range        [1e+00, 2e+02]
Presolve added 0 rows and 1450 columns
Presolve removed 50 rows and 0 columns
Presolve time: 2.43s
Presolved: 104166 rows, 102250 columns, 431350 nonzeros
Variable types: 0 continuous, 102250 integer (102250 binary)
Found heuristic solution: objective 196450.00000

Concurrent LP optimizer: primal simplex, dual simplex, and barrier
Showing barrier log only...

Root barrier log...

Ordering time: 0.42s

Barrier statistics:
 Dense cols : 400
 AA' NZ     : 3.344e+05
 Factor NZ  : 1.300e+06 (roughly 100 MBytes of memory)
 Factor Ops : 3.284e+08 (less than 1 second per iteration)
 Threads    : 6

                  Objective                Residual
Iter       Primal          Dual         Primal    Dual     Compl     Time
   0   7.50824871e+07 -1.04613222e+08  3.08e+02 2.99e+01  7.91e+03     5s
   1   5.24402514e+05 -9.11004664e+07  1.38e+00 3.60e+01  3.29e+02     5s
   2   2.36618621e+05 -2.89875396e+07  1.37e-01 1.05e+01  9.67e+01     5s
   3   2.08448999e+05 -9.69501518e+06  1.28e-02 3.41e+00  3.23e+01     5s
   4   2.02463015e+05 -7.44868177e+05  4.55e-03 3.08e-01  3.09e+00     5s
   5   1.92919242e+05 -3.06500390e+05  2.95e-03 1.57e-01  1.63e+00     6s
   6   1.84086931e+05  3.14483177e+03  1.94e-03 5.59e-02  5.89e-01     6s
   7   1.80697053e+05  5.93975868e+04  1.67e-03 3.41e-02  3.95e-01     6s
   8   1.75802117e+05  9.80230517e+04  1.37e-03 1.90e-02  2.53e-01     6s
   9   1.71074651e+05  1.21805685e+05  1.09e-03 1.04e-02  1.60e-01     6s
  10   1.66957444e+05  1.29729774e+05  8.70e-04 8.19e-03  1.21e-01     7s
  11   1.63239164e+05  1.37889796e+05  6.85e-04 8.22e-03  8.23e-02     7s
  12   1.60160034e+05  1.41708332e+05  5.30e-04 5.66e-03  5.99e-02     7s
  13   1.58744423e+05  1.43367427e+05  4.60e-04 4.36e-03  4.99e-02     8s
  14   1.56446875e+05  1.45421765e+05  3.48e-04 2.91e-03  3.58e-02     8s
  15   1.54772893e+05  1.46350675e+05  2.64e-04 2.26e-03  2.73e-02     8s
  16   1.53984043e+05  1.47127245e+05  2.24e-04 1.72e-03  2.22e-02     8s
  17   1.53202268e+05  1.47923900e+05  1.82e-04 1.73e-03  1.71e-02     8s
  18   1.52625826e+05  1.48209563e+05  1.52e-04 1.36e-03  1.43e-02     9s
  19   1.52054378e+05  1.48435007e+05  1.24e-04 1.13e-03  1.17e-02     9s
  20   1.51506068e+05  1.48573251e+05  9.52e-05 1.01e-03  9.51e-03     9s
  21   1.51421495e+05  1.48686912e+05  9.09e-05 9.10e-04  8.87e-03     9s
  22   1.51106028e+05  1.48876621e+05  7.42e-05 7.00e-04  7.23e-03    10s
  23   1.50865724e+05  1.49077009e+05  6.11e-05 4.74e-04  5.80e-03    10s
  24   1.50612101e+05  1.49184604e+05  4.79e-05 3.94e-04  4.63e-03    10s
  25   1.50484626e+05  1.49280262e+05  4.09e-05 3.23e-04  3.91e-03    10s
  26   1.50317662e+05  1.49372372e+05  3.20e-05 2.50e-04  3.07e-03    11s
  27   1.50197700e+05  1.49434304e+05  2.55e-05 2.41e-04  2.48e-03    11s
  28   1.50122487e+05  1.49504555e+05  2.13e-05 1.86e-04  2.00e-03    11s
  29   1.50042981e+05  1.49552058e+05  1.71e-05 1.53e-04  1.59e-03    11s
  30   1.49996744e+05  1.49602861e+05  1.46e-05 1.18e-04  1.28e-03    11s
  31   1.49946376e+05  1.49625733e+05  1.19e-05 9.55e-05  1.04e-03    12s
  32   1.49897380e+05  1.49645627e+05  9.25e-06 7.56e-05  8.16e-04    12s
  33   1.49884949e+05  1.49659601e+05  8.64e-06 6.50e-05  7.30e-04    12s
  34   1.49848077e+05  1.49676683e+05  6.76e-06 4.55e-05  5.55e-04    12s
  35   1.49821235e+05  1.49688299e+05  5.27e-06 3.15e-05  4.31e-04    12s
  36   1.49808987e+05  1.49693888e+05  4.70e-06 2.62e-05  3.73e-04    13s
  37   1.49793290e+05  1.49698236e+05  3.81e-06 2.32e-05  3.08e-04    13s
  38   1.49789826e+05  1.49702126e+05  3.61e-06 2.08e-05  2.84e-04    13s
  39   1.49776355e+05  1.49703949e+05  2.89e-06 1.97e-05  2.35e-04    13s
  40   1.49766752e+05  1.49711446e+05  2.35e-06 1.30e-05  1.79e-04    13s
  41   1.49758307e+05  1.49714480e+05  1.87e-06 1.24e-05  1.42e-04    14s
  42   1.49751920e+05  1.49717336e+05  1.52e-06 9.18e-06  1.12e-04    14s
  43   1.49741303e+05  1.49720184e+05  9.14e-07 6.23e-06  6.84e-05    14s
  44   1.49736869e+05  1.49722031e+05  6.63e-07 3.66e-06  4.81e-05    14s
  45   1.49733523e+05  1.49722642e+05  4.75e-07 3.08e-06  3.52e-05    14s
  46   1.49731605e+05  1.49723213e+05  3.76e-07 2.46e-06  2.72e-05    14s
  47   1.49728204e+05  1.49723535e+05  1.82e-07 1.88e-06  1.51e-05    15s
  48   1.49727491e+05  1.49723907e+05  1.42e-07 1.32e-06  1.16e-05    15s
  49   1.49727156e+05  1.49724055e+05  1.23e-07 1.11e-06  1.00e-05    15s
  50   1.49726943e+05  1.49724259e+05  1.12e-07 8.13e-07  8.70e-06    15s
  51   1.49726467e+05  1.49724456e+05  8.53e-08 5.57e-07  6.52e-06    15s
  52   1.49726276e+05  1.49724548e+05  7.48e-08 4.12e-07  5.60e-06    15s
  53   1.49725642e+05  1.49724706e+05  4.04e-08 1.95e-07  3.03e-06    15s
  54   1.49725510e+05  1.49724728e+05  3.33e-08 1.69e-07  2.53e-06    15s
  55   1.49725427e+05  1.49724782e+05  2.90e-08 9.68e-08  2.09e-06    15s
  56   1.49725271e+05  1.49724790e+05  2.07e-08 8.66e-08  1.56e-06    16s
  57   1.49725032e+05  1.49724848e+05  8.40e-09 5.03e-08  5.97e-07    16s
  58   1.49724870e+05  1.49724866e+05  1.17e-10 1.79e-07  1.13e-08    16s
  59   1.49724870e+05  1.49724866e+05  1.06e-09 1.71e-07  1.08e-08    16s
  60   1.49724869e+05  1.49724866e+05  8.96e-09 1.71e-07  1.06e-08    16s
  61   1.49724869e+05  1.49724866e+05  8.88e-09 1.69e-07  1.05e-08    16s

Barrier solved model in 61 iterations and 16.15 seconds
Optimal objective 1.49724869e+05


Root crossover log...

   50523 DPushes remaining with DInf 0.0000000e+00                16s
     359 DPushes remaining with DInf 0.0000000e+00                20s
       0 DPushes remaining with DInf 0.0000000e+00                21s

     593 PPushes remaining with PInf 0.0000000e+00                21s
       0 PPushes remaining with PInf 0.0000000e+00                21s

  Push phase complete: Pinf 0.0000000e+00, Dinf 3.9453774e-10     21s


Root simplex log...

Iteration    Objective       Primal Inf.    Dual Inf.      Time
   10595    1.4972487e+05   0.000000e+00   0.000000e+00     21s
   10595    1.4972487e+05   0.000000e+00   0.000000e+00     21s

Solved with barrier

Root relaxation: objective 1.497249e+05, 10595 iterations, 17.41 seconds

    Nodes    |    Current Node    |     Objective Bounds      |     Work
 Expl Unexpl |  Obj  Depth IntInf | Incumbent    BestBd   Gap | It/Node Time

     0     0 149724.867    0 10290 196450.000 149724.867  23.8%     -   22s
H    0     0                    158577.00000 149724.867  5.58%     -   23s
H    0     0                    158547.00000 149724.867  5.56%     -   23s
H    0     0                    158531.00000 149724.867  5.55%     -   24s
     0     0 149728.476    0 10309 158531.000 149728.476  5.55%     -   32s
     0     0 149728.591    0 10307 158531.000 149728.591  5.55%     -   53s
     0     0 149731.546    0 10447 158531.000 149731.546  5.55%     -   62s
     0     0 149733.425    0 10534 158531.000 149733.425  5.55%     -   78s
     0     0 149733.626    0 10417 158531.000 149733.626  5.55%     -   83s
     0     0 149733.670    0 10556 158531.000 149733.670  5.55%     -   86s
     0     0 149733.673    0 10552 158531.000 149733.673  5.55%     -   87s
     0     0 149734.682    0 10679 158531.000 149734.682  5.55%     -  120s
     0     0 149734.760    0 10679 158531.000 149734.760  5.55%     -  123s
     0     0 149734.771    0 10679 158531.000 149734.771  5.55%     -  124s
     0     0 149735.735    0 10566 158531.000 149735.735  5.55%     -  137s
     0     0 149736.195    0 10501 158531.000 149736.195  5.55%     -  141s
     0     0 149736.236    0 10446 158531.000 149736.236  5.55%     -  143s
     0     0 149736.242    0 10388 158531.000 149736.242  5.55%     -  143s
     0     0 149736.243    0 10389 158531.000 149736.243  5.55%     -  146s
     0     0 149736.246    0 10444 158531.000 149736.246  5.55%     -  148s
     0     0 149736.246    0 10447 158531.000 149736.246  5.55%     -  151s
     0     0 149736.246    0 10452 158531.000 149736.246  5.55%     -  152s
     0     0 149736.246    0 10452 158531.000 149736.246  5.55%     -  186s
H    0     0                    158055.00000 149736.246  5.26%     -  207s
     0     2 149736.246    0 10444 158055.000 149736.246  5.26%     -  218s

Cutting planes:
  Gomory: 2
  Zero half: 44

Explored 1 nodes (18393 simplex iterations) in 300.03 seconds
Thread count was 16 (of 16 available processors)

Solution count 5: 158055 158531 158547 ... 196450

Time limit reached
Best objective 1.580550000000e+05, best bound 1.497370000000e+05, gap 5.2627%

User-callback calls 19887, time in user-callback 0.37 sec
Result: runtime=218.86sec; objective=158055; gap=5.2627%
Solution written to /autofs/unityaccount/cremi/mdeboute/Bureau/multi-period-flp/solution//instSingle_I50_J250_T8_0_result.txt
